938624
1 8 23751
8 16 58436
16 3 71701
3 14 30026
14 17 42390
17 15 45489
15 9 71452
9 6 47657
6 36 22446
36 7 11793
7 29 22890
29 38 744
38 23 7448
23 34 31608
34 25 30137
25 39 4093
39 30 6375
30 37 941
37 26 14545
26 33 15457
33 12 3966
12 5 38538
5 32 3289
32 20 24201
20 31 21913
31 28 12751
28 13 6411
13 40 33501
40 22 29078
22 24 45979
24 4 52566
4 19 26532
19 27 17773
27 18 12605
18 2 16361
2 35 10541
35 11 5412
11 10 5506
10 21 5744
21 1 6578
